151
1000
615
717
331
148
987
742
253
545
694
24
122
116
459
803
256
996
401
510
133
852
160
212
5
827
744
32
230
153
217
17
510
517
1
177
840
861
166
490
156
604
243
42
408
46
813
709
98
251
58
669
458
967
17
74
295
483
33
369
119
837
347
391
159
983
44
628
361
590
867
158
317
542
683
541
15
705
852
100
710
187
749
372
775
10
432
135
595
474
684
699
104
86
536
162
464
291
675
4
770
1
163
158
13
120
99
272
956
577
134
44
49
900
100
341
567
983
283
2
109
880
279
244
823
670
183
607
866
544
230
817
452
241
380
46
9
770
301
286
592
92
139
173
599
834
62
330
63
148
659
828
173
